(declare-const p2 Real)
(declare-const p5 Real)
(declare-const p9 Real)
(declare-const fee_bl Real)
(declare-const p8 Real)
(declare-const p10 Real)
(declare-const income Real)
(declare-const p6 Real)
(declare-const p4 Real)
(declare-const p3 Real)
(declare-const p7 Real)
(declare-const p1 Real)
(assert (= p1 (* 0.01 (ite (> income 21512) 21512 income))))
(assert (= p2 (ite (> income 21512) (* 0.02 (- (ite (> income 50998) 50998 income) 21512)) 0)))
(assert (= p3 (ite (> income 50998) (* 0.04 (- (ite (> income 80490) 80490 income) 50998)) 0)))
(assert (= p4 (ite (> income 80490) (* 0.06 (- (ite (> income 111732) 111732 income) 80490)) 0)))
(assert (= p5 (ite (> income 111732) (* 0.08 (- (ite (> income 141732) 141732 income) 111732)) 0)))
(assert (= p6 (ite (> income 141732) (* 0.093 (- (ite (> income 721318) 721318 income) 141732)) 0)))
(assert (= p7 (ite (> income 721318) (* 0.103 (- (ite (> income 865574) 865574 income) 721318)) 0)))
(assert (= p8 (ite (> income 865574) (* 0.113 (- (ite (> income 1000000) 1000000 income) 865574)) 0)))
(assert (= p9 (ite (> income 1000000) (* 0.123 (- (ite (> income 1442628) 1442628 income) 1000000)) 0)))
(assert (= p10 (ite (> income 1442628) (* 0.133 (- income 1442628)) 0)))
(assert (= fee_bl (+ (+ (+ (+ (+ (+ (+ (+ (+ p1 p2) p3) p4) p5) p6) p7) p8) p9) p10)))